
Value of objective function: 0

Actual values of the variables:
x                               0
y                               0

Actual values of the constraints:
a                               0
b                               0
